problems/csplib-prob001/CarSequencing-models/noch/O2/lingeling/model-random15-solution000001.eprime-solution
language ESSENCE' 1.0

letting car_Function1D be
        [24, 5, 13, 5, 8, 5, 16, 10, 5, 23, 5, 5, 13, 15, 14, 5, 13, 21, 15, 5, 13, 5, 5, 7, 13, 3, 5, 13, 6, 19, 5, 16,
         13, 5, 20, 5, 13, 21, 5, 15, 13, 5, 8, 5, 5, 12, 5, 5, 16, 24, 23, 14, 17, 13, 16, 16, 13, 22, 13, 21, 14, 16,
         4, 13, 5, 5, 20, 17, 18, 5, 14, 16, 15, 14, 23, 5, 13, 5, 5, 9, 5, 15, 5, 14, 1, 5, 13, 5, 12, 5, 5, 13, 15, 5,
         5, 23, 14, 16, 15, 5, 5, 9, 17, 14, 16, 16, 23, 13, 5, 14, 16, 14, 5, 16, 14, 15, 9, 21, 13, 5, 16, 10, 16, 5,
         14, 7, 15, 5, 11, 15, 5, 5, 16, 15, 5, 13, 19, 14, 5, 13, 5, 19, 13, 5, 5, 13, 4, 5, 13, 5, 13, 5, 7, 13, 16,
         12, 5, 7, 12, 16, 14, 5, 23, 5, 15, 13, 16, 5, 5, 16, 2, 5, 20, 5, 14, 16, 13, 5, 6, 16, 5, 5, 13, 16, 13, 5,
         5, 13, 5, 13, 5, 13, 5, 5, 16, 5, 13, 5, 5, 15; int(1..200)]
